
  22   10
  10   10   10   10   10   10   10   10   10   10

   0   0   0   0   0   0   0   0   0   0   0  11 2 3 4 5 6 7 8 9 19 20 21 
   4   0   0   0   0   0  10   0   0   0   0   7 18 17 15 13 12 11 10 
   8   0   0   0   0   0  10   0   0   0   0   5 16 14 13 12 11 
   8   0   0   0   0   0   0   0   0  10   0   4 16 14 12 11 
   3   0   0   0   0  10   0   0   0   0   0   3 12 11 10 
   3   0   0   0  10   0   0   0   0   0   0   2 14 10 
  10   0   0   0   0  10   0   0   0   0   0   1 15 
   1   0   0   0   0  10   0   0   0   0   0   1 13 
   7   0  10   0   0   0   0   0   0   0   0   1 10 
   4   0   0   0   0   0   0   0   0  10   0   1 22
   2   0   0   0   0   0   0   0   0  10   0   1 22
   7   0   0   0  10   0   0   0   0   0   0   1 22
   4   0   0   0   0   0   0   0   0  10   0   1 22
   2   0   0   0   0   0   0  10   0   0   0   1 22
   7   0   0   0   0   0   0   0  10   0   0   1 22
   4   0  10   0   0   0   0   0   0   0   0   1 22
   2   0   0   0   0   0   0   0  10   0   0   1 22
   2   0   0   0   0   0  10   0   0   0   0   1 22
   1  10   0   0   0   0   0   0   0   0   0   1 22
   6   0   0   0   0  10   0   0   0   0   0   1 22
   2   0   0   0   0   0   0  10   0   0   0   1 22
   0   0   0   0   0   0   0   0   0   0   0   0 
